0 0 0 0
0 1 1 0
0 2 2 0
0 3 0 0
0 4 2 1
0 5 2 4
0 6 0 9
0 7 2 1
0 8 2 7
0 9 0 10
0 10 1 20
0 11 2 10
0 12 0 9
0 13 2 27
0 14 2 19
0 15 1 29
0 16 1 15
0 17 2 19
0 18 2 19
0 19 0 24
0 20 1 20
0 21 2 27
0 22 2 25
0 23 2 27
0 24 1 36
0 25 2 37
0 26 1 36
0 27 0 36
0 28 0 45
0 29 1 43
0 30 0 45
0 31 0 48
